<number of tasks>
20

<cycle time>
1000

<order strength>
0,5


<task times>
1 486
2 140
3 41
4 215
5 32
6 66
7 228
8 46
9 138
10 138
11 75
12 528
13 154
14 329
15 557
16 80
17 68
18 213
19 251
20 238

<precedence relations>
1,4
1,6
2,3
2,5
2,6
3,7
4,10
5,8
5,9
6,12
7,10
8,10
8,11
8,13
8,14
9,12
9,17
10,16
10,18
10,20
11,18
12,15
13,18
15,18
15,19
15,20
16,17
16,19

<end>
